c SAT Generator for power-law distributed variable frequencies
c -g u -v 20 -c 91 -k 3 -p 2.750000 -b 3.200000 -f /home/schmidt/Devel/ni-kop-sat/data/ensemble/ruf20-91/ruf20-91-648 -u 1 -U 1 -s 3834861186
p cnf 20 91
4 5 -15 0
-6 10 -17 0
3 -6 -19 0
10 11 18 0
-1 -9 -11 0
1 4 -15 0
7 -16 20 0
4 -12 -14 0
7 -14 -19 0
-12 -13 14 0
5 15 -20 0
-5 9 -15 0
3 -7 19 0
-2 3 -8 0
-1 12 14 0
-14 -18 -19 0
-4 9 -12 0
-3 -4 -12 0
16 -18 20 0
-1 12 20 0
-1 6 -9 0
-15 19 -20 0
-6 -10 18 0
1 9 14 0
3 4 -18 0
1 7 -15 0
6 -9 11 0
-4 -12 17 0
-2 9 -14 0
3 -5 16 0
2 8 12 0
-2 -11 -14 0
1 3 -6 0
-8 -12 -16 0
6 -9 -14 0
-2 -7 20 0
5 -9 18 0
-4 8 10 0
-1 -7 18 0
1 -2 7 0
-7 17 18 0
4 18 19 0
-9 14 18 0
-3 4 5 0
3 -17 19 0
1 2 8 0
12 -15 20 0
1 13 -20 0
7 -8 -14 0
4 -13 -15 0
-1 7 -11 0
-9 -16 20 0
4 -9 19 0
-3 -11 15 0
6 -7 16 0
-8 12 15 0
2 13 18 0
2 6 9 0
-7 -8 -18 0
5 6 8 0
-4 10 -15 0
-6 11 -14 0
-3 10 -19 0
12 14 17 0
7 -14 -16 0
8 -16 18 0
2 -4 -8 0
-8 14 -20 0
4 -9 -17 0
-4 -13 16 0
4 -6 -10 0
6 13 -16 0
11 -16 -18 0
5 -14 -19 0
-2 8 9 0
-3 -6 -14 0
-14 15 -16 0
-13 -15 18 0
5 10 -17 0
12 -17 19 0
-6 9 12 0
4 -9 -16 0
8 10 -18 0
-10 18 20 0
1 5 -19 0
8 -10 -14 0
-6 -10 13 0
7 10 16 0
-7 -15 -17 0
-1 -18 19 0
10 -12 15 0
